c " random instance " 
p edges 200 4166
e 1 5
e 1 8
e 1 9
e 1 11
e 1 13
e 1 19
e 1 38
e 1 43
e 1 50
e 1 51
e 1 55
e 1 57
e 1 64
e 1 65
e 1 72
e 1 76
e 1 83
e 1 91
e 1 95
e 1 96
e 1 101
e 1 104
e 1 106
e 1 127
e 1 130
e 1 132
e 1 134
e 1 147
e 1 149
e 1 152
e 1 154
e 1 162
e 1 165
e 1 166
e 1 167
e 1 168
e 1 170
e 1 173
e 1 181
e 1 191
e 1 193
e 1 200
e 2 3
e 2 5
e 2 7
e 2 8
e 2 12
e 2 16
e 2 19
e 2 22
e 2 23
e 2 24
e 2 25
e 2 29
e 2 34
e 2 40
e 2 43
e 2 46
e 2 60
e 2 62
e 2 68
e 2 76
e 2 84
e 2 90
e 2 94
e 2 98
e 2 99
e 2 102
e 2 126
e 2 129
e 2 134
e 2 137
e 2 140
e 2 141
e 2 143
e 2 144
e 2 145
e 2 157
e 2 168
e 2 177
e 2 178
e 2 180
e 2 186
e 2 190
e 2 194
e 3 4
e 3 5
e 3 13
e 3 20
e 3 27
e 3 29
e 3 33
e 3 36
e 3 38
e 3 39
e 3 43
e 3 47
e 3 53
e 3 58
e 3 60
e 3 61
e 3 62
e 3 78
e 3 87
e 3 91
e 3 108
e 3 115
e 3 121
e 3 124
e 3 127
e 3 132
e 3 139
e 3 140
e 3 148
e 3 157
e 3 166
e 3 170
e 3 174
e 3 176
e 3 182
e 3 190
e 3 191
e 3 192
e 3 195
e 4 7
e 4 8
e 4 11
e 4 12
e 4 16
e 4 17
e 4 18
e 4 21
e 4 26
e 4 27
e 4 32
e 4 41
e 4 49
e 4 64
e 4 66
e 4 67
e 4 73
e 4 85
e 4 86
e 4 90
e 4 93
e 4 103
e 4 115
e 4 116
e 4 119
e 4 127
e 4 139
e 4 143
e 4 146
e 4 148
e 4 151
e 4 159
e 4 165
e 4 176
e 4 191
e 5 17
e 5 19
e 5 23
e 5 27
e 5 29
e 5 31
e 5 32
e 5 38
e 5 39
e 5 40
e 5 47
e 5 53
e 5 56
e 5 59
e 5 65
e 5 70
e 5 74
e 5 83
e 5 88
e 5 92
e 5 102
e 5 108
e 5 115
e 5 116
e 5 121
e 5 123
e 5 129
e 5 130
e 5 135
e 5 137
e 5 143
e 5 154
e 5 157
e 5 158
e 5 163
e 5 164
e 5 167
e 5 171
e 5 175
e 5 183
e 5 188
e 5 192
e 5 193
e 6 7
e 6 11
e 6 13
e 6 16
e 6 21
e 6 30
e 6 40
e 6 41
e 6 55
e 6 56
e 6 57
e 6 65
e 6 66
e 6 76
e 6 80
e 6 86
e 6 92
e 6 98
e 6 100
e 6 108
e 6 115
e 6 121
e 6 124
e 6 126
e 6 130
e 6 132
e 6 140
e 6 142
e 6 151
e 6 163
e 6 166
e 6 170
e 6 178
e 6 179
e 6 185
e 6 188
e 6 189
e 6 200
e 7 8
e 7 12
e 7 14
e 7 22
e 7 25
e 7 30
e 7 42
e 7 49
e 7 66
e 7 69
e 7 75
e 7 78
e 7 84
e 7 87
e 7 95
e 7 106
e 7 109
e 7 123
e 7 149
e 7 153
e 7 163
e 7 180
e 7 182
e 7 191
e 8 14
e 8 19
e 8 24
e 8 35
e 8 37
e 8 40
e 8 42
e 8 44
e 8 52
e 8 53
e 8 58
e 8 59
e 8 63
e 8 66
e 8 69
e 8 72
e 8 75
e 8 77
e 8 80
e 8 96
e 8 105
e 8 106
e 8 107
e 8 110
e 8 111
e 8 112
e 8 114
e 8 115
e 8 117
e 8 125
e 8 135
e 8 138
e 8 139
e 8 152
e 8 159
e 8 161
e 8 163
e 8 164
e 8 171
e 8 182
e 8 185
e 8 186
e 8 191
e 8 199
e 8 200
e 9 10
e 9 15
e 9 32
e 9 38
e 9 42
e 9 46
e 9 47
e 9 52
e 9 55
e 9 57
e 9 67
e 9 71
e 9 74
e 9 76
e 9 86
e 9 87
e 9 99
e 9 102
e 9 105
e 9 107
e 9 108
e 9 123
e 9 124
e 9 127
e 9 135
e 9 143
e 9 144
e 9 150
e 9 151
e 9 165
e 9 166
e 9 171
e 9 173
e 9 174
e 9 175
e 9 182
e 9 186
e 9 187
e 9 191
e 9 195
e 9 197
e 10 16
e 10 18
e 10 24
e 10 25
e 10 26
e 10 32
e 10 51
e 10 53
e 10 55
e 10 59
e 10 84
e 10 92
e 10 106
e 10 107
e 10 114
e 10 115
e 10 119
e 10 126
e 10 129
e 10 143
e 10 145
e 10 152
e 10 154
e 10 155
e 10 157
e 10 166
e 10 167
e 10 169
e 10 170
e 10 174
e 10 180
e 10 195
e 10 197
e 10 198
e 10 199
e 11 13
e 11 17
e 11 25
e 11 26
e 11 30
e 11 32
e 11 34
e 11 35
e 11 37
e 11 40
e 11 41
e 11 47
e 11 50
e 11 55
e 11 59
e 11 60
e 11 61
e 11 62
e 11 67
e 11 71
e 11 75
e 11 85
e 11 87
e 11 102
e 11 103
e 11 105
e 11 107
e 11 111
e 11 115
e 11 130
e 11 135
e 11 171
e 11 176
e 11 180
e 11 183
e 11 187
e 12 14
e 12 21
e 12 22
e 12 23
e 12 28
e 12 38
e 12 49
e 12 55
e 12 56
e 12 57
e 12 64
e 12 69
e 12 79
e 12 80
e 12 84
e 12 85
e 12 90
e 12 91
e 12 101
e 12 102
e 12 104
e 12 113
e 12 123
e 12 125
e 12 130
e 12 134
e 12 137
e 12 141
e 12 142
e 12 144
e 12 147
e 12 149
e 12 152
e 12 158
e 12 161
e 12 163
e 12 175
e 12 176
e 12 179
e 12 185
e 12 190
e 12 197
e 12 200
e 13 23
e 13 24
e 13 36
e 13 38
e 13 41
e 13 44
e 13 45
e 13 54
e 13 58
e 13 64
e 13 68
e 13 84
e 13 87
e 13 89
e 13 97
e 13 98
e 13 99
e 13 104
e 13 117
e 13 127
e 13 128
e 13 129
e 13 131
e 13 136
e 13 144
e 13 146
e 13 153
e 13 157
e 13 159
e 13 165
e 13 169
e 13 175
e 13 176
e 13 180
e 13 187
e 13 188
e 13 194
e 13 196
e 13 200
e 14 19
e 14 20
e 14 31
e 14 37
e 14 41
e 14 43
e 14 52
e 14 53
e 14 59
e 14 63
e 14 68
e 14 76
e 14 77
e 14 81
e 14 85
e 14 93
e 14 96
e 14 99
e 14 107
e 14 110
e 14 111
e 14 113
e 14 115
e 14 118
e 14 133
e 14 141
e 14 143
e 14 144
e 14 148
e 14 150
e 14 153
e 14 160
e 14 168
e 14 178
e 14 179
e 14 182
e 14 184
e 14 185
e 14 187
e 14 192
e 14 195
e 14 197
e 14 199
e 15 16
e 15 18
e 15 21
e 15 24
e 15 36
e 15 46
e 15 49
e 15 52
e 15 57
e 15 65
e 15 67
e 15 70
e 15 75
e 15 78
e 15 79
e 15 80
e 15 90
e 15 91
e 15 92
e 15 96
e 15 98
e 15 101
e 15 107
e 15 108
e 15 111
e 15 120
e 15 122
e 15 125
e 15 136
e 15 145
e 15 150
e 15 157
e 15 158
e 15 168
e 15 171
e 15 179
e 15 180
e 15 181
e 15 182
e 15 183
e 15 185
e 15 188
e 15 192
e 15 198
e 15 199
e 16 24
e 16 25
e 16 28
e 16 29
e 16 30
e 16 33
e 16 48
e 16 61
e 16 63
e 16 65
e 16 68
e 16 69
e 16 72
e 16 86
e 16 89
e 16 93
e 16 99
e 16 103
e 16 105
e 16 108
e 16 110
e 16 121
e 16 130
e 16 135
e 16 145
e 16 147
e 16 150
e 16 159
e 16 163
e 16 164
e 16 169
e 16 179
e 16 184
e 16 186
e 16 194
e 16 195
e 16 197
e 17 29
e 17 41
e 17 42
e 17 44
e 17 46
e 17 56
e 17 57
e 17 58
e 17 64
e 17 71
e 17 78
e 17 80
e 17 81
e 17 84
e 17 88
e 17 89
e 17 90
e 17 99
e 17 100
e 17 101
e 17 109
e 17 111
e 17 115
e 17 120
e 17 135
e 17 141
e 17 143
e 17 151
e 17 161
e 17 164
e 17 173
e 17 175
e 17 178
e 17 183
e 17 184
e 17 186
e 17 191
e 17 196
e 17 200
e 18 20
e 18 27
e 18 34
e 18 35
e 18 38
e 18 43
e 18 44
e 18 51
e 18 53
e 18 57
e 18 82
e 18 83
e 18 100
e 18 106
e 18 110
e 18 115
e 18 125
e 18 136
e 18 138
e 18 139
e 18 140
e 18 145
e 18 146
e 18 149
e 18 150
e 18 154
e 18 158
e 18 159
e 18 166
e 18 170
e 18 178
e 18 181
e 18 190
e 18 198
e 19 29
e 19 33
e 19 34
e 19 37
e 19 50
e 19 51
e 19 59
e 19 60
e 19 61
e 19 69
e 19 70
e 19 73
e 19 74
e 19 75
e 19 85
e 19 88
e 19 102
e 19 106
e 19 109
e 19 113
e 19 116
e 19 121
e 19 126
e 19 145
e 19 154
e 19 161
e 19 166
e 19 169
e 19 187
e 19 190
e 20 22
e 20 25
e 20 28
e 20 33
e 20 47
e 20 50
e 20 51
e 20 58
e 20 69
e 20 72
e 20 77
e 20 79
e 20 88
e 20 101
e 20 108
e 20 125
e 20 129
e 20 136
e 20 137
e 20 140
e 20 141
e 20 146
e 20 147
e 20 150
e 20 151
e 20 161
e 20 162
e 20 164
e 20 166
e 20 168
e 20 173
e 20 183
e 20 191
e 20 192
e 20 193
e 20 195
e 20 197
e 21 22
e 21 27
e 21 34
e 21 40
e 21 44
e 21 47
e 21 49
e 21 59
e 21 71
e 21 79
e 21 80
e 21 86
e 21 116
e 21 118
e 21 124
e 21 130
e 21 145
e 21 152
e 21 154
e 21 156
e 21 160
e 21 163
e 21 166
e 21 178
e 21 181
e 21 183
e 21 191
e 21 194
e 22 35
e 22 36
e 22 39
e 22 53
e 22 62
e 22 67
e 22 76
e 22 78
e 22 81
e 22 83
e 22 90
e 22 91
e 22 92
e 22 99
e 22 101
e 22 105
e 22 116
e 22 120
e 22 123
e 22 126
e 22 129
e 22 135
e 22 140
e 22 145
e 22 159
e 22 162
e 22 168
e 22 170
e 22 178
e 22 186
e 22 193
e 23 25
e 23 26
e 23 30
e 23 35
e 23 36
e 23 38
e 23 42
e 23 46
e 23 49
e 23 56
e 23 59
e 23 62
e 23 65
e 23 66
e 23 68
e 23 81
e 23 87
e 23 88
e 23 93
e 23 95
e 23 105
e 23 112
e 23 118
e 23 119
e 23 122
e 23 132
e 23 136
e 23 143
e 23 145
e 23 146
e 23 147
e 23 155
e 23 162
e 23 165
e 23 170
e 23 172
e 23 176
e 23 184
e 23 193
e 23 194
e 23 200
e 24 27
e 24 28
e 24 33
e 24 38
e 24 41
e 24 45
e 24 48
e 24 49
e 24 53
e 24 56
e 24 57
e 24 60
e 24 62
e 24 63
e 24 68
e 24 76
e 24 78
e 24 82
e 24 86
e 24 89
e 24 93
e 24 99
e 24 103
e 24 106
e 24 108
e 24 110
e 24 118
e 24 120
e 24 125
e 24 126
e 24 127
e 24 131
e 24 138
e 24 140
e 24 149
e 24 152
e 24 157
e 24 161
e 24 166
e 24 178
e 24 179
e 24 180
e 24 182
e 24 193
e 24 194
e 24 197
e 25 37
e 25 39
e 25 43
e 25 48
e 25 49
e 25 60
e 25 88
e 25 90
e 25 95
e 25 105
e 25 107
e 25 113
e 25 115
e 25 116
e 25 119
e 25 120
e 25 132
e 25 136
e 25 138
e 25 139
e 25 141
e 25 149
e 25 154
e 25 155
e 25 159
e 25 169
e 25 176
e 25 178
e 25 179
e 25 180
e 25 186
e 25 187
e 25 189
e 26 27
e 26 30
e 26 32
e 26 36
e 26 49
e 26 55
e 26 61
e 26 72
e 26 74
e 26 75
e 26 79
e 26 98
e 26 103
e 26 104
e 26 105
e 26 108
e 26 110
e 26 118
e 26 127
e 26 129
e 26 138
e 26 139
e 26 148
e 26 152
e 26 153
e 26 155
e 26 162
e 26 167
e 26 168
e 26 175
e 26 178
e 26 183
e 26 184
e 26 186
e 26 189
e 26 192
e 26 196
e 26 200
e 27 39
e 27 42
e 27 44
e 27 49
e 27 54
e 27 59
e 27 60
e 27 64
e 27 73
e 27 75
e 27 79
e 27 81
e 27 86
e 27 89
e 27 99
e 27 103
e 27 105
e 27 106
e 27 110
e 27 111
e 27 119
e 27 124
e 27 127
e 27 128
e 27 133
e 27 134
e 27 137
e 27 139
e 27 140
e 27 142
e 27 143
e 27 144
e 27 151
e 27 153
e 27 166
e 27 167
e 27 184
e 27 187
e 27 192
e 27 195
e 27 196
e 27 197
e 28 33
e 28 36
e 28 50
e 28 55
e 28 56
e 28 65
e 28 67
e 28 82
e 28 86
e 28 94
e 28 112
e 28 119
e 28 130
e 28 138
e 28 144
e 28 153
e 28 156
e 28 159
e 28 161
e 28 167
e 28 174
e 28 175
e 28 176
e 28 180
e 28 183
e 28 188
e 28 190
e 28 193
e 28 200
e 29 35
e 29 37
e 29 40
e 29 45
e 29 51
e 29 55
e 29 56
e 29 59
e 29 60
e 29 88
e 29 92
e 29 93
e 29 95
e 29 100
e 29 101
e 29 106
e 29 107
e 29 111
e 29 113
e 29 118
e 29 121
e 29 127
e 29 130
e 29 141
e 29 146
e 29 147
e 29 150
e 29 154
e 29 156
e 29 165
e 29 167
e 29 170
e 29 179
e 29 183
e 29 188
e 30 37
e 30 44
e 30 46
e 30 47
e 30 59
e 30 63
e 30 65
e 30 69
e 30 72
e 30 74
e 30 75
e 30 82
e 30 89
e 30 93
e 30 94
e 30 98
e 30 104
e 30 108
e 30 115
e 30 117
e 30 139
e 30 147
e 30 154
e 30 158
e 30 170
e 30 171
e 30 173
e 30 176
e 30 194
e 31 44
e 31 45
e 31 46
e 31 51
e 31 56
e 31 59
e 31 61
e 31 62
e 31 63
e 31 65
e 31 68
e 31 73
e 31 75
e 31 77
e 31 83
e 31 85
e 31 90
e 31 93
e 31 103
e 31 104
e 31 111
e 31 113
e 31 124
e 31 132
e 31 143
e 31 152
e 31 153
e 31 155
e 31 164
e 31 170
e 31 190
e 31 192
e 31 195
e 32 34
e 32 42
e 32 45
e 32 53
e 32 55
e 32 58
e 32 61
e 32 64
e 32 68
e 32 71
e 32 73
e 32 76
e 32 77
e 32 80
e 32 82
e 32 85
e 32 93
e 32 96
e 32 98
e 32 100
e 32 119
e 32 125
e 32 128
e 32 130
e 32 137
e 32 142
e 32 145
e 32 152
e 32 153
e 32 155
e 32 157
e 32 161
e 32 170
e 32 173
e 32 174
e 32 182
e 32 197
e 33 39
e 33 42
e 33 44
e 33 47
e 33 67
e 33 77
e 33 89
e 33 97
e 33 98
e 33 100
e 33 101
e 33 109
e 33 114
e 33 118
e 33 144
e 33 154
e 33 156
e 33 164
e 33 165
e 33 166
e 33 167
e 33 170
e 33 171
e 33 175
e 33 188
e 33 190
e 33 193
e 34 44
e 34 53
e 34 55
e 34 68
e 34 84
e 34 87
e 34 89
e 34 95
e 34 103
e 34 108
e 34 112
e 34 122
e 34 132
e 34 133
e 34 143
e 34 145
e 34 149
e 34 152
e 34 154
e 34 159
e 34 161
e 34 167
e 34 175
e 34 178
e 34 189
e 34 191
e 34 196
e 34 197
e 35 37
e 35 38
e 35 40
e 35 42
e 35 52
e 35 55
e 35 60
e 35 61
e 35 62
e 35 67
e 35 72
e 35 78
e 35 80
e 35 82
e 35 84
e 35 86
e 35 89
e 35 106
e 35 111
e 35 112
e 35 114
e 35 119
e 35 126
e 35 139
e 35 146
e 35 148
e 35 151
e 35 153
e 35 158
e 35 159
e 35 160
e 35 162
e 35 163
e 35 164
e 35 165
e 35 169
e 35 171
e 35 172
e 35 185
e 35 192
e 35 194
e 35 198
e 36 38
e 36 39
e 36 45
e 36 49
e 36 58
e 36 67
e 36 69
e 36 88
e 36 98
e 36 105
e 36 106
e 36 108
e 36 109
e 36 110
e 36 121
e 36 126
e 36 127
e 36 132
e 36 142
e 36 144
e 36 152
e 36 166
e 36 169
e 36 177
e 36 196
e 36 197
e 36 198
e 37 51
e 37 63
e 37 65
e 37 68
e 37 69
e 37 77
e 37 78
e 37 82
e 37 83
e 37 84
e 37 85
e 37 91
e 37 92
e 37 96
e 37 100
e 37 114
e 37 117
e 37 119
e 37 120
e 37 129
e 37 149
e 37 153
e 37 156
e 37 157
e 37 167
e 37 170
e 37 174
e 37 177
e 37 180
e 37 182
e 37 188
e 37 190
e 37 199
e 38 42
e 38 43
e 38 46
e 38 54
e 38 55
e 38 60
e 38 65
e 38 66
e 38 75
e 38 81
e 38 85
e 38 90
e 38 101
e 38 104
e 38 107
e 38 109
e 38 112
e 38 115
e 38 119
e 38 123
e 38 124
e 38 125
e 38 126
e 38 128
e 38 138
e 38 140
e 38 144
e 38 147
e 38 148
e 38 151
e 38 156
e 38 157
e 38 169
e 38 172
e 38 173
e 38 175
e 38 177
e 38 183
e 38 189
e 38 190
e 38 194
e 38 197
e 38 200
e 39 41
e 39 43
e 39 44
e 39 46
e 39 50
e 39 54
e 39 58
e 39 68
e 39 75
e 39 86
e 39 88
e 39 90
e 39 104
e 39 108
e 39 115
e 39 116
e 39 125
e 39 129
e 39 136
e 39 167
e 39 176
e 39 178
e 39 180
e 39 188
e 39 199
e 39 200
e 40 43
e 40 44
e 40 48
e 40 50
e 40 51
e 40 56
e 40 57
e 40 60
e 40 67
e 40 70
e 40 73
e 40 76
e 40 77
e 40 79
e 40 82
e 40 86
e 40 89
e 40 92
e 40 93
e 40 95
e 40 106
e 40 129
e 40 131
e 40 135
e 40 137
e 40 139
e 40 145
e 40 146
e 40 147
e 40 149
e 40 151
e 40 154
e 40 159
e 40 164
e 40 168
e 40 171
e 40 176
e 40 178
e 40 179
e 40 184
e 40 187
e 40 190
e 40 197
e 40 199
e 41 44
e 41 53
e 41 54
e 41 55
e 41 59
e 41 68
e 41 69
e 41 73
e 41 77
e 41 78
e 41 83
e 41 85
e 41 91
e 41 97
e 41 99
e 41 100
e 41 101
e 41 103
e 41 107
e 41 108
e 41 111
e 41 112
e 41 116
e 41 130
e 41 135
e 41 136
e 41 148
e 41 156
e 41 160
e 41 167
e 41 170
e 41 171
e 41 173
e 41 174
e 41 181
e 41 188
e 41 192
e 42 45
e 42 58
e 42 59
e 42 63
e 42 69
e 42 73
e 42 77
e 42 79
e 42 84
e 42 94
e 42 96
e 42 107
e 42 118
e 42 119
e 42 125
e 42 130
e 42 132
e 42 135
e 42 137
e 42 144
e 42 145
e 42 154
e 42 155
e 42 159
e 42 160
e 42 172
e 42 179
e 42 182
e 42 184
e 42 195
e 43 46
e 43 50
e 43 57
e 43 58
e 43 70
e 43 72
e 43 74
e 43 92
e 43 101
e 43 105
e 43 109
e 43 111
e 43 114
e 43 116
e 43 123
e 43 127
e 43 128
e 43 131
e 43 134
e 43 136
e 43 138
e 43 139
e 43 141
e 43 149
e 43 150
e 43 153
e 43 159
e 43 167
e 43 168
e 43 175
e 43 182
e 43 186
e 43 187
e 43 193
e 44 45
e 44 46
e 44 49
e 44 58
e 44 59
e 44 66
e 44 69
e 44 86
e 44 91
e 44 97
e 44 98
e 44 99
e 44 100
e 44 106
e 44 108
e 44 114
e 44 120
e 44 121
e 44 122
e 44 124
e 44 127
e 44 128
e 44 131
e 44 132
e 44 140
e 44 142
e 44 147
e 44 149
e 44 150
e 44 162
e 44 163
e 44 165
e 44 174
e 44 180
e 44 184
e 44 189
e 44 194
e 45 49
e 45 53
e 45 56
e 45 57
e 45 58
e 45 63
e 45 64
e 45 66
e 45 68
e 45 71
e 45 74
e 45 78
e 45 92
e 45 97
e 45 101
e 45 102
e 45 111
e 45 113
e 45 115
e 45 116
e 45 117
e 45 122
e 45 123
e 45 127
e 45 131
e 45 134
e 45 135
e 45 153
e 45 155
e 45 169
e 45 171
e 45 177
e 45 180
e 45 196
e 46 51
e 46 53
e 46 57
e 46 58
e 46 63
e 46 65
e 46 69
e 46 72
e 46 79
e 46 83
e 46 84
e 46 88
e 46 94
e 46 95
e 46 96
e 46 97
e 46 98
e 46 99
e 46 105
e 46 121
e 46 125
e 46 126
e 46 130
e 46 131
e 46 133
e 46 136
e 46 140
e 46 145
e 46 147
e 46 153
e 46 154
e 46 159
e 46 167
e 46 171
e 46 172
e 46 175
e 46 195
e 46 196
e 46 197
e 46 200
e 47 48
e 47 49
e 47 54
e 47 56
e 47 61
e 47 64
e 47 72
e 47 75
e 47 78
e 47 89
e 47 99
e 47 104
e 47 108
e 47 113
e 47 116
e 47 117
e 47 125
e 47 131
e 47 134
e 47 139
e 47 140
e 47 142
e 47 145
e 47 146
e 47 149
e 47 151
e 47 152
e 47 153
e 47 168
e 47 169
e 47 178
e 47 179
e 47 180
e 47 182
e 47 193
e 47 195
e 47 196
e 47 198
e 48 49
e 48 52
e 48 57
e 48 58
e 48 61
e 48 62
e 48 63
e 48 66
e 48 68
e 48 70
e 48 79
e 48 86
e 48 91
e 48 94
e 48 100
e 48 104
e 48 106
e 48 120
e 48 121
e 48 125
e 48 132
e 48 133
e 48 148
e 48 151
e 48 153
e 48 156
e 48 166
e 48 168
e 48 176
e 48 177
e 48 179
e 48 182
e 48 190
e 48 194
e 48 199
e 49 56
e 49 68
e 49 73
e 49 76
e 49 79
e 49 80
e 49 88
e 49 105
e 49 109
e 49 111
e 49 118
e 49 127
e 49 129
e 49 131
e 49 136
e 49 142
e 49 145
e 49 157
e 49 172
e 49 173
e 49 186
e 49 197
e 49 198
e 50 52
e 50 58
e 50 59
e 50 63
e 50 66
e 50 74
e 50 83
e 50 84
e 50 90
e 50 91
e 50 93
e 50 94
e 50 95
e 50 99
e 50 115
e 50 125
e 50 136
e 50 139
e 50 144
e 50 147
e 50 148
e 50 150
e 50 157
e 50 159
e 50 160
e 50 165
e 50 170
e 50 172
e 50 173
e 50 175
e 50 184
e 50 187
e 50 188
e 50 191
e 50 195
e 51 62
e 51 78
e 51 80
e 51 81
e 51 82
e 51 100
e 51 104
e 51 107
e 51 108
e 51 115
e 51 118
e 51 120
e 51 124
e 51 136
e 51 140
e 51 144
e 51 162
e 51 170
e 51 171
e 51 178
e 51 179
e 51 180
e 51 181
e 51 182
e 51 184
e 51 190
e 51 194
e 51 196
e 51 197
e 52 59
e 52 71
e 52 72
e 52 76
e 52 77
e 52 84
e 52 89
e 52 90
e 52 98
e 52 99
e 52 102
e 52 115
e 52 117
e 52 123
e 52 124
e 52 128
e 52 143
e 52 146
e 52 148
e 52 155
e 52 157
e 52 176
e 52 178
e 52 179
e 52 180
e 52 181
e 52 182
e 52 184
e 52 190
e 52 193
e 53 56
e 53 59
e 53 60
e 53 61
e 53 66
e 53 72
e 53 74
e 53 76
e 53 82
e 53 91
e 53 103
e 53 105
e 53 107
e 53 118
e 53 121
e 53 126
e 53 128
e 53 129
e 53 145
e 53 150
e 53 152
e 53 161
e 53 174
e 53 179
e 53 181
e 53 183
e 53 197
e 53 199
e 54 58
e 54 59
e 54 63
e 54 68
e 54 69
e 54 81
e 54 82
e 54 84
e 54 92
e 54 95
e 54 96
e 54 102
e 54 103
e 54 104
e 54 105
e 54 110
e 54 112
e 54 116
e 54 121
e 54 125
e 54 126
e 54 132
e 54 145
e 54 158
e 54 159
e 54 162
e 54 171
e 54 172
e 54 176
e 54 178
e 54 179
e 54 185
e 54 186
e 54 192
e 54 194
e 55 56
e 55 62
e 55 66
e 55 69
e 55 74
e 55 77
e 55 87
e 55 91
e 55 92
e 55 95
e 55 96
e 55 98
e 55 104
e 55 113
e 55 123
e 55 124
e 55 126
e 55 133
e 55 136
e 55 137
e 55 142
e 55 144
e 55 151
e 55 157
e 55 160
e 55 172
e 55 176
e 55 178
e 55 182
e 55 194
e 55 195
e 55 196
e 56 57
e 56 71
e 56 72
e 56 75
e 56 79
e 56 82
e 56 84
e 56 85
e 56 87
e 56 88
e 56 91
e 56 95
e 56 98
e 56 100
e 56 101
e 56 110
e 56 111
e 56 120
e 56 127
e 56 128
e 56 138
e 56 141
e 56 150
e 56 151
e 56 160
e 56 167
e 56 176
e 56 179
e 56 181
e 56 183
e 56 186
e 57 62
e 57 68
e 57 70
e 57 75
e 57 76
e 57 78
e 57 87
e 57 89
e 57 91
e 57 93
e 57 95
e 57 98
e 57 101
e 57 107
e 57 112
e 57 117
e 57 126
e 57 133
e 57 138
e 57 143
e 57 144
e 57 148
e 57 163
e 57 164
e 57 169
e 57 174
e 57 179
e 57 186
e 57 189
e 57 191
e 57 192
e 57 197
e 58 64
e 58 72
e 58 75
e 58 82
e 58 85
e 58 93
e 58 94
e 58 99
e 58 100
e 58 101
e 58 103
e 58 104
e 58 107
e 58 116
e 58 122
e 58 127
e 58 137
e 58 138
e 58 139
e 58 141
e 58 142
e 58 145
e 58 146
e 58 156
e 58 171
e 58 172
e 58 177
e 58 200
e 59 65
e 59 66
e 59 74
e 59 81
e 59 88
e 59 92
e 59 95
e 59 99
e 59 100
e 59 103
e 59 106
e 59 116
e 59 117
e 59 128
e 59 130
e 59 132
e 59 135
e 59 152
e 59 160
e 59 169
e 59 170
e 59 175
e 59 178
e 59 182
e 59 189
e 59 193
e 59 196
e 60 61
e 60 67
e 60 70
e 60 74
e 60 93
e 60 94
e 60 103
e 60 112
e 60 114
e 60 120
e 60 124
e 60 128
e 60 131
e 60 134
e 60 135
e 60 136
e 60 140
e 60 141
e 60 143
e 60 150
e 60 151
e 60 153
e 60 159
e 60 166
e 60 167
e 60 173
e 60 175
e 60 185
e 60 186
e 60 187
e 60 195
e 60 199
e 61 65
e 61 67
e 61 72
e 61 75
e 61 76
e 61 80
e 61 83
e 61 87
e 61 109
e 61 112
e 61 116
e 61 119
e 61 130
e 61 135
e 61 138
e 61 139
e 61 140
e 61 144
e 61 146
e 61 153
e 61 158
e 61 159
e 61 165
e 61 167
e 61 169
e 61 172
e 61 173
e 61 175
e 61 183
e 61 185
e 61 186
e 61 187
e 61 189
e 61 195
e 61 197
e 62 70
e 62 81
e 62 84
e 62 86
e 62 90
e 62 91
e 62 96
e 62 105
e 62 106
e 62 110
e 62 116
e 62 118
e 62 119
e 62 120
e 62 125
e 62 126
e 62 129
e 62 132
e 62 141
e 62 143
e 62 144
e 62 145
e 62 150
e 62 152
e 62 156
e 62 163
e 62 167
e 62 171
e 62 175
e 62 181
e 62 183
e 62 187
e 62 189
e 62 196
e 62 198
e 63 64
e 63 76
e 63 77
e 63 79
e 63 84
e 63 90
e 63 91
e 63 94
e 63 102
e 63 113
e 63 115
e 63 124
e 63 126
e 63 129
e 63 144
e 63 152
e 63 154
e 63 156
e 63 159
e 63 162
e 63 167
e 63 175
e 63 184
e 63 187
e 63 192
e 63 195
e 63 197
e 63 198
e 63 199
e 64 66
e 64 67
e 64 70
e 64 71
e 64 82
e 64 84
e 64 86
e 64 88
e 64 91
e 64 93
e 64 100
e 64 102
e 64 109
e 64 114
e 64 134
e 64 149
e 64 159
e 64 171
e 64 174
e 64 179
e 64 180
e 64 187
e 64 193
e 64 199
e 64 200
e 65 66
e 65 67
e 65 71
e 65 72
e 65 75
e 65 76
e 65 80
e 65 90
e 65 93
e 65 97
e 65 98
e 65 103
e 65 107
e 65 115
e 65 118
e 65 129
e 65 135
e 65 141
e 65 145
e 65 147
e 65 150
e 65 154
e 65 156
e 65 158
e 65 159
e 65 163
e 65 166
e 65 171
e 65 172
e 65 175
e 65 177
e 65 178
e 65 186
e 65 193
e 66 68
e 66 70
e 66 96
e 66 97
e 66 111
e 66 114
e 66 115
e 66 119
e 66 121
e 66 125
e 66 133
e 66 146
e 66 162
e 66 177
e 66 179
e 66 184
e 66 188
e 66 189
e 66 192
e 66 198
e 66 200
e 67 71
e 67 77
e 67 78
e 67 83
e 67 85
e 67 87
e 67 101
e 67 103
e 67 110
e 67 117
e 67 127
e 67 128
e 67 132
e 67 134
e 67 138
e 67 141
e 67 145
e 67 146
e 67 147
e 67 150
e 67 167
e 67 169
e 67 173
e 67 174
e 67 175
e 67 180
e 67 181
e 67 187
e 67 189
e 67 191
e 67 198
e 68 77
e 68 78
e 68 79
e 68 81
e 68 86
e 68 87
e 68 95
e 68 103
e 68 105
e 68 110
e 68 114
e 68 115
e 68 134
e 68 139
e 68 144
e 68 148
e 68 149
e 68 159
e 68 167
e 68 177
e 68 178
e 68 182
e 68 192
e 68 198
e 68 199
e 69 75
e 69 76
e 69 77
e 69 78
e 69 81
e 69 86
e 69 88
e 69 92
e 69 99
e 69 100
e 69 101
e 69 102
e 69 107
e 69 111
e 69 114
e 69 117
e 69 120
e 69 123
e 69 135
e 69 138
e 69 153
e 69 156
e 69 163
e 69 167
e 69 168
e 69 169
e 69 183
e 69 188
e 69 189
e 70 74
e 70 83
e 70 85
e 70 86
e 70 87
e 70 105
e 70 112
e 70 115
e 70 140
e 70 141
e 70 143
e 70 152
e 70 160
e 70 161
e 70 162
e 70 167
e 70 171
e 70 173
e 70 174
e 70 177
e 70 180
e 70 181
e 70 185
e 70 187
e 70 188
e 70 197
e 71 74
e 71 83
e 71 84
e 71 86
e 71 88
e 71 93
e 71 94
e 71 108
e 71 113
e 71 153
e 71 154
e 71 158
e 71 160
e 71 162
e 71 164
e 71 176
e 71 178
e 71 182
e 71 189
e 71 195
e 71 196
e 71 197
e 71 198
e 71 199
e 72 75
e 72 76
e 72 77
e 72 78
e 72 83
e 72 89
e 72 91
e 72 114
e 72 115
e 72 133
e 72 139
e 72 148
e 72 150
e 72 156
e 72 160
e 72 166
e 72 167
e 72 181
e 72 186
e 72 187
e 73 79
e 73 81
e 73 86
e 73 88
e 73 92
e 73 100
e 73 103
e 73 104
e 73 110
e 73 111
e 73 121
e 73 132
e 73 139
e 73 152
e 73 156
e 73 157
e 73 167
e 73 170
e 73 173
e 73 174
e 73 176
e 73 184
e 73 185
e 73 193
e 73 197
e 74 81
e 74 86
e 74 92
e 74 94
e 74 95
e 74 96
e 74 100
e 74 101
e 74 103
e 74 107
e 74 108
e 74 115
e 74 116
e 74 141
e 74 154
e 74 160
e 74 162
e 74 167
e 74 168
e 74 185
e 74 191
e 74 192
e 74 195
e 74 200
e 75 79
e 75 80
e 75 85
e 75 86
e 75 101
e 75 114
e 75 119
e 75 120
e 75 121
e 75 122
e 75 125
e 75 131
e 75 136
e 75 143
e 75 145
e 75 156
e 75 161
e 75 166
e 75 170
e 75 174
e 75 180
e 75 183
e 75 184
e 75 188
e 75 191
e 75 192
e 75 200
e 76 83
e 76 93
e 76 98
e 76 103
e 76 104
e 76 109
e 76 111
e 76 112
e 76 114
e 76 118
e 76 121
e 76 122
e 76 123
e 76 132
e 76 140
e 76 141
e 76 142
e 76 148
e 76 152
e 76 153
e 76 165
e 76 170
e 76 173
e 76 180
e 76 184
e 76 187
e 76 193
e 76 197
e 77 87
e 77 92
e 77 96
e 77 97
e 77 100
e 77 109
e 77 116
e 77 120
e 77 121
e 77 137
e 77 141
e 77 151
e 77 162
e 77 166
e 77 170
e 77 175
e 77 182
e 77 183
e 77 193
e 77 195
e 78 79
e 78 80
e 78 81
e 78 89
e 78 90
e 78 94
e 78 96
e 78 104
e 78 111
e 78 122
e 78 125
e 78 128
e 78 132
e 78 134
e 78 143
e 78 152
e 78 155
e 78 156
e 78 164
e 78 168
e 78 187
e 78 188
e 78 189
e 78 198
e 79 82
e 79 91
e 79 92
e 79 96
e 79 100
e 79 108
e 79 111
e 79 113
e 79 115
e 79 116
e 79 117
e 79 121
e 79 125
e 79 131
e 79 134
e 79 135
e 79 136
e 79 137
e 79 140
e 79 142
e 79 143
e 79 145
e 79 150
e 79 156
e 79 159
e 79 160
e 79 167
e 79 174
e 79 178
e 79 179
e 79 180
e 79 184
e 79 185
e 79 188
e 79 189
e 79 191
e 79 194
e 80 82
e 80 91
e 80 93
e 80 101
e 80 102
e 80 103
e 80 106
e 80 107
e 80 109
e 80 115
e 80 116
e 80 118
e 80 120
e 80 125
e 80 135
e 80 141
e 80 164
e 80 169
e 80 170
e 80 171
e 80 174
e 80 175
e 80 176
e 80 183
e 80 186
e 80 188
e 80 191
e 80 192
e 80 194
e 81 88
e 81 90
e 81 93
e 81 104
e 81 112
e 81 123
e 81 124
e 81 125
e 81 127
e 81 128
e 81 137
e 81 143
e 81 154
e 81 160
e 81 164
e 81 168
e 81 173
e 81 176
e 81 177
e 81 183
e 81 187
e 81 188
e 81 189
e 81 190
e 81 193
e 81 199
e 82 92
e 82 93
e 82 94
e 82 102
e 82 106
e 82 112
e 82 114
e 82 125
e 82 129
e 82 137
e 82 151
e 82 152
e 82 163
e 82 164
e 82 165
e 82 169
e 82 171
e 82 174
e 82 182
e 82 188
e 82 190
e 82 198
e 83 85
e 83 87
e 83 89
e 83 93
e 83 94
e 83 103
e 83 106
e 83 108
e 83 112
e 83 121
e 83 122
e 83 137
e 83 158
e 83 160
e 83 163
e 83 166
e 83 171
e 83 173
e 83 182
e 83 185
e 83 188
e 83 195
e 84 91
e 84 96
e 84 98
e 84 100
e 84 103
e 84 106
e 84 108
e 84 114
e 84 119
e 84 121
e 84 122
e 84 125
e 84 132
e 84 141
e 84 154
e 84 163
e 84 170
e 84 173
e 84 174
e 84 179
e 84 180
e 84 186
e 84 193
e 85 88
e 85 96
e 85 99
e 85 107
e 85 110
e 85 117
e 85 118
e 85 120
e 85 128
e 85 131
e 85 132
e 85 147
e 85 149
e 85 150
e 85 151
e 85 155
e 85 162
e 85 163
e 85 168
e 85 169
e 85 170
e 85 174
e 85 176
e 85 178
e 85 182
e 85 184
e 85 191
e 85 192
e 85 194
e 85 195
e 85 197
e 86 88
e 86 106
e 86 111
e 86 113
e 86 116
e 86 118
e 86 124
e 86 127
e 86 136
e 86 141
e 86 144
e 86 145
e 86 152
e 86 158
e 86 163
e 86 164
e 86 165
e 86 169
e 86 174
e 86 182
e 86 183
e 86 188
e 86 194
e 86 198
e 86 199
e 87 88
e 87 90
e 87 94
e 87 95
e 87 96
e 87 99
e 87 100
e 87 105
e 87 107
e 87 108
e 87 112
e 87 116
e 87 118
e 87 119
e 87 130
e 87 137
e 87 149
e 87 153
e 87 163
e 87 169
e 87 177
e 87 183
e 87 192
e 87 199
e 88 90
e 88 97
e 88 104
e 88 105
e 88 108
e 88 111
e 88 120
e 88 132
e 88 134
e 88 136
e 88 140
e 88 147
e 88 149
e 88 161
e 88 167
e 88 169
e 88 170
e 88 171
e 88 175
e 88 179
e 88 181
e 88 188
e 88 189
e 88 198
e 89 90
e 89 96
e 89 99
e 89 100
e 89 106
e 89 110
e 89 117
e 89 124
e 89 129
e 89 133
e 89 137
e 89 138
e 89 145
e 89 146
e 89 147
e 89 148
e 89 150
e 89 151
e 89 152
e 89 154
e 89 157
e 89 158
e 89 163
e 89 164
e 89 183
e 89 184
e 89 188
e 89 190
e 89 198
e 89 199
e 90 93
e 90 96
e 90 100
e 90 116
e 90 121
e 90 124
e 90 126
e 90 129
e 90 133
e 90 138
e 90 144
e 90 152
e 90 154
e 90 155
e 90 157
e 90 162
e 90 163
e 90 169
e 90 175
e 90 184
e 90 185
e 90 190
e 90 193
e 90 195
e 90 196
e 90 198
e 91 106
e 91 107
e 91 114
e 91 115
e 91 120
e 91 122
e 91 123
e 91 137
e 91 142
e 91 159
e 91 160
e 91 162
e 91 171
e 91 173
e 91 180
e 91 182
e 91 183
e 91 186
e 91 190
e 91 194
e 91 196
e 91 199
e 92 94
e 92 100
e 92 104
e 92 106
e 92 119
e 92 120
e 92 123
e 92 142
e 92 143
e 92 145
e 92 150
e 92 158
e 92 160
e 92 172
e 92 174
e 92 188
e 92 196
e 93 94
e 93 96
e 93 97
e 93 106
e 93 107
e 93 113
e 93 114
e 93 117
e 93 120
e 93 123
e 93 134
e 93 135
e 93 139
e 93 141
e 93 146
e 93 151
e 93 156
e 93 157
e 93 160
e 93 162
e 93 164
e 93 176
e 93 182
e 93 190
e 93 197
e 94 106
e 94 110
e 94 114
e 94 119
e 94 120
e 94 135
e 94 162
e 94 168
e 94 176
e 94 181
e 94 183
e 94 186
e 95 96
e 95 97
e 95 98
e 95 104
e 95 106
e 95 108
e 95 113
e 95 125
e 95 129
e 95 131
e 95 132
e 95 136
e 95 137
e 95 143
e 95 156
e 95 158
e 95 162
e 95 163
e 95 168
e 95 169
e 95 173
e 95 177
e 95 178
e 95 179
e 95 181
e 95 188
e 95 195
e 96 97
e 96 98
e 96 101
e 96 102
e 96 103
e 96 105
e 96 106
e 96 111
e 96 113
e 96 114
e 96 123
e 96 125
e 96 127
e 96 128
e 96 131
e 96 133
e 96 136
e 96 138
e 96 150
e 96 153
e 96 160
e 96 164
e 96 168
e 96 173
e 96 185
e 96 191
e 96 194
e 96 200
e 97 106
e 97 115
e 97 125
e 97 126
e 97 131
e 97 137
e 97 145
e 97 150
e 97 151
e 97 152
e 97 153
e 97 157
e 97 162
e 97 166
e 97 167
e 97 169
e 97 179
e 97 184
e 97 186
e 97 192
e 97 197
e 98 107
e 98 111
e 98 113
e 98 114
e 98 131
e 98 144
e 98 149
e 98 150
e 98 151
e 98 153
e 98 155
e 98 156
e 98 158
e 98 164
e 98 165
e 98 169
e 98 171
e 98 176
e 98 180
e 98 181
e 98 186
e 98 187
e 98 194
e 98 198
e 98 199
e 98 200
e 99 105
e 99 106
e 99 108
e 99 123
e 99 124
e 99 126
e 99 134
e 99 137
e 99 139
e 99 150
e 99 152
e 99 156
e 99 162
e 99 168
e 99 172
e 99 177
e 99 181
e 99 183
e 99 185
e 99 187
e 99 198
e 99 199
e 100 102
e 100 105
e 100 108
e 100 109
e 100 124
e 100 126
e 100 132
e 100 134
e 100 136
e 100 143
e 100 148
e 100 155
e 100 158
e 100 159
e 100 160
e 100 163
e 100 167
e 100 170
e 100 172
e 100 173
e 100 176
e 100 186
e 100 192
e 100 193
e 100 199
e 101 103
e 101 112
e 101 113
e 101 115
e 101 118
e 101 126
e 101 130
e 101 142
e 101 150
e 101 153
e 101 166
e 101 173
e 101 174
e 101 179
e 101 188
e 101 192
e 101 195
e 101 196
e 101 198
e 102 103
e 102 106
e 102 107
e 102 109
e 102 110
e 102 111
e 102 114
e 102 116
e 102 121
e 102 131
e 102 133
e 102 134
e 102 142
e 102 145
e 102 146
e 102 152
e 102 155
e 102 160
e 102 162
e 102 167
e 102 169
e 102 177
e 102 178
e 102 184
e 102 185
e 102 192
e 102 194
e 102 198
e 103 107
e 103 112
e 103 117
e 103 119
e 103 122
e 103 124
e 103 125
e 103 128
e 103 133
e 103 135
e 103 139
e 103 143
e 103 158
e 103 163
e 103 168
e 103 170
e 103 174
e 103 177
e 103 179
e 103 182
e 103 196
e 103 197
e 104 112
e 104 122
e 104 128
e 104 130
e 104 134
e 104 135
e 104 140
e 104 151
e 104 162
e 104 163
e 104 164
e 104 167
e 104 168
e 104 181
e 104 183
e 104 184
e 104 198
e 105 108
e 105 111
e 105 114
e 105 117
e 105 119
e 105 129
e 105 130
e 105 151
e 105 155
e 105 161
e 105 170
e 105 172
e 105 173
e 105 183
e 105 191
e 105 194
e 106 109
e 106 119
e 106 120
e 106 122
e 106 127
e 106 128
e 106 129
e 106 142
e 106 148
e 106 150
e 106 151
e 106 154
e 106 157
e 106 163
e 106 164
e 106 165
e 106 166
e 106 169
e 106 171
e 106 185
e 106 189
e 107 115
e 107 116
e 107 117
e 107 130
e 107 131
e 107 132
e 107 134
e 107 149
e 107 151
e 107 155
e 107 162
e 107 175
e 107 181
e 107 190
e 107 194
e 107 195
e 107 200
e 108 114
e 108 117
e 108 122
e 108 125
e 108 134
e 108 141
e 108 151
e 108 153
e 108 154
e 108 161
e 108 164
e 108 170
e 108 174
e 108 178
e 108 182
e 108 184
e 108 189
e 108 192
e 109 122
e 109 130
e 109 131
e 109 133
e 109 139
e 109 142
e 109 143
e 109 155
e 109 161
e 109 169
e 109 170
e 109 177
e 109 179
e 109 183
e 109 195
e 109 196
e 109 198
e 110 121
e 110 122
e 110 127
e 110 128
e 110 137
e 110 138
e 110 147
e 110 149
e 110 151
e 110 155
e 110 160
e 110 164
e 110 171
e 110 172
e 110 174
e 110 176
e 110 181
e 110 187
e 110 198
e 111 112
e 111 115
e 111 116
e 111 119
e 111 121
e 111 126
e 111 130
e 111 134
e 111 140
e 111 142
e 111 151
e 111 152
e 111 156
e 111 160
e 111 171
e 111 181
e 111 185
e 111 194
e 111 196
e 112 120
e 112 121
e 112 123
e 112 129
e 112 136
e 112 138
e 112 143
e 112 145
e 112 148
e 112 151
e 112 153
e 112 154
e 112 156
e 112 158
e 112 165
e 112 167
e 112 168
e 112 177
e 112 185
e 112 191
e 112 196
e 113 118
e 113 127
e 113 128
e 113 131
e 113 135
e 113 152
e 113 155
e 113 158
e 113 172
e 113 180
e 113 183
e 113 187
e 113 188
e 113 190
e 113 194
e 113 196
e 113 199
e 114 116
e 114 119
e 114 122
e 114 126
e 114 134
e 114 140
e 114 145
e 114 160
e 114 161
e 114 167
e 114 168
e 114 170
e 114 171
e 114 182
e 114 183
e 114 187
e 114 196
e 115 116
e 115 120
e 115 129
e 115 131
e 115 133
e 115 135
e 115 138
e 115 143
e 115 145
e 115 146
e 115 149
e 115 155
e 115 160
e 115 161
e 115 164
e 115 168
e 115 169
e 115 171
e 115 172
e 115 173
e 115 181
e 115 185
e 115 192
e 115 198
e 116 117
e 116 122
e 116 129
e 116 144
e 116 159
e 116 160
e 116 175
e 116 181
e 116 189
e 116 194
e 116 195
e 117 120
e 117 121
e 117 125
e 117 126
e 117 127
e 117 134
e 117 136
e 117 146
e 117 149
e 117 150
e 117 155
e 117 156
e 117 158
e 117 172
e 117 174
e 117 179
e 117 184
e 117 186
e 117 189
e 117 192
e 117 199
e 118 126
e 118 136
e 118 138
e 118 142
e 118 145
e 118 156
e 118 175
e 118 178
e 118 181
e 118 185
e 118 186
e 118 187
e 118 188
e 118 192
e 118 199
e 119 125
e 119 127
e 119 128
e 119 132
e 119 136
e 119 145
e 119 146
e 119 147
e 119 149
e 119 161
e 119 165
e 119 177
e 119 190
e 119 191
e 119 193
e 119 195
e 119 198
e 120 127
e 120 131
e 120 140
e 120 147
e 120 149
e 120 150
e 120 152
e 120 159
e 120 165
e 120 167
e 120 172
e 120 174
e 120 175
e 120 192
e 120 194
e 121 125
e 121 127
e 121 136
e 121 142
e 121 144
e 121 145
e 121 147
e 121 148
e 121 151
e 121 161
e 121 169
e 121 181
e 121 182
e 121 185
e 121 189
e 121 190
e 121 193
e 121 195
e 121 197
e 122 137
e 122 138
e 122 140
e 122 142
e 122 146
e 122 161
e 122 163
e 122 164
e 122 165
e 122 166
e 122 176
e 122 182
e 122 183
e 122 184
e 122 191
e 122 197
e 122 200
e 123 125
e 123 127
e 123 129
e 123 132
e 123 136
e 123 142
e 123 151
e 123 152
e 123 154
e 123 155
e 123 156
e 123 158
e 123 165
e 123 173
e 123 176
e 123 180
e 123 182
e 123 185
e 123 191
e 123 199
e 124 128
e 124 142
e 124 147
e 124 149
e 124 151
e 124 159
e 124 162
e 124 187
e 124 188
e 124 194
e 124 197
e 125 127
e 125 140
e 125 143
e 125 153
e 125 162
e 125 165
e 125 169
e 125 174
e 125 178
e 125 179
e 125 183
e 125 184
e 125 185
e 125 190
e 125 194
e 125 195
e 125 197
e 125 198
e 125 200
e 126 128
e 126 132
e 126 137
e 126 140
e 126 154
e 126 157
e 126 159
e 126 168
e 126 179
e 126 183
e 126 191
e 126 192
e 126 194
e 127 147
e 127 150
e 127 151
e 127 155
e 127 156
e 127 159
e 127 160
e 127 163
e 127 164
e 127 166
e 127 168
e 127 169
e 127 170
e 127 172
e 127 176
e 127 190
e 127 192
e 127 193
e 127 195
e 127 198
e 128 135
e 128 146
e 128 147
e 128 152
e 128 155
e 128 156
e 128 160
e 128 164
e 128 167
e 128 172
e 128 177
e 128 184
e 128 189
e 128 194
e 128 195
e 129 130
e 129 131
e 129 133
e 129 146
e 129 148
e 129 156
e 129 174
e 129 178
e 129 182
e 129 188
e 129 190
e 129 200
e 130 134
e 130 137
e 130 142
e 130 151
e 130 158
e 130 159
e 130 160
e 130 161
e 130 162
e 130 164
e 130 172
e 130 174
e 130 177
e 130 178
e 130 183
e 130 195
e 130 196
e 130 199
e 131 136
e 131 137
e 131 139
e 131 140
e 131 149
e 131 151
e 131 152
e 131 158
e 131 160
e 131 161
e 131 163
e 131 171
e 131 182
e 131 183
e 131 190
e 131 198
e 132 134
e 132 135
e 132 142
e 132 147
e 132 171
e 132 177
e 132 181
e 132 185
e 132 191
e 132 195
e 132 197
e 133 135
e 133 137
e 133 140
e 133 141
e 133 142
e 133 143
e 133 144
e 133 145
e 133 146
e 133 154
e 133 155
e 133 156
e 133 159
e 133 167
e 133 169
e 133 170
e 133 173
e 133 175
e 133 180
e 133 181
e 133 186
e 133 197
e 133 199
e 134 139
e 134 140
e 134 143
e 134 144
e 134 149
e 134 154
e 134 165
e 134 166
e 134 169
e 134 173
e 134 185
e 134 188
e 134 192
e 135 140
e 135 148
e 135 149
e 135 151
e 135 154
e 135 159
e 135 175
e 135 181
e 135 184
e 135 186
e 135 190
e 135 192
e 136 137
e 136 139
e 136 143
e 136 144
e 136 150
e 136 151
e 136 152
e 136 158
e 136 160
e 136 165
e 136 168
e 136 178
e 136 180
e 136 181
e 136 189
e 136 195
e 136 198
e 137 144
e 137 147
e 137 149
e 137 150
e 137 152
e 137 155
e 137 156
e 137 159
e 137 160
e 137 162
e 137 168
e 137 171
e 137 172
e 137 176
e 137 183
e 137 184
e 137 185
e 137 186
e 137 190
e 138 146
e 138 153
e 138 163
e 138 171
e 138 173
e 138 184
e 138 197
e 138 200
e 139 140
e 139 144
e 139 149
e 139 150
e 139 152
e 139 153
e 139 161
e 139 162
e 139 163
e 139 166
e 139 170
e 139 171
e 139 185
e 139 195
e 139 198
e 140 145
e 140 156
e 140 169
e 140 170
e 140 171
e 140 175
e 140 186
e 140 197
e 140 199
e 141 142
e 141 145
e 141 147
e 141 151
e 141 152
e 141 155
e 141 157
e 141 159
e 141 163
e 141 168
e 141 188
e 141 194
e 142 143
e 142 145
e 142 147
e 142 153
e 142 160
e 142 166
e 142 169
e 142 173
e 142 180
e 142 186
e 142 187
e 142 190
e 142 198
e 143 146
e 143 152
e 143 155
e 143 159
e 143 170
e 143 171
e 143 178
e 143 189
e 144 146
e 144 148
e 144 151
e 144 153
e 144 156
e 144 164
e 144 167
e 144 174
e 144 175
e 144 176
e 144 177
e 144 182
e 144 183
e 144 187
e 145 154
e 145 157
e 145 158
e 145 163
e 145 166
e 145 168
e 145 171
e 145 184
e 145 190
e 145 197
e 146 164
e 146 171
e 146 176
e 146 178
e 146 180
e 146 182
e 146 186
e 146 188
e 147 154
e 147 163
e 147 167
e 147 173
e 147 177
e 147 178
e 147 192
e 147 194
e 147 195
e 147 197
e 147 199
e 148 151
e 148 156
e 148 159
e 148 160
e 148 165
e 148 166
e 148 170
e 148 181
e 148 195
e 148 199
e 149 155
e 149 157
e 149 162
e 149 167
e 149 176
e 149 177
e 149 196
e 149 197
e 150 155
e 150 159
e 150 162
e 150 164
e 150 165
e 150 168
e 150 170
e 150 171
e 150 173
e 150 190
e 150 193
e 151 153
e 151 160
e 151 163
e 151 164
e 151 166
e 151 170
e 151 181
e 151 186
e 151 188
e 151 192
e 151 194
e 151 200
e 152 153
e 152 155
e 152 157
e 152 169
e 152 173
e 152 174
e 152 176
e 152 179
e 152 186
e 152 187
e 152 189
e 152 190
e 152 196
e 153 163
e 153 170
e 153 174
e 153 175
e 153 180
e 153 181
e 153 183
e 153 190
e 153 194
e 153 195
e 153 199
e 154 156
e 154 164
e 154 165
e 154 167
e 154 172
e 154 193
e 154 199
e 154 200
e 155 165
e 155 166
e 155 168
e 155 171
e 155 174
e 155 185
e 155 187
e 155 191
e 156 164
e 156 169
e 156 172
e 156 176
e 156 177
e 156 178
e 156 185
e 156 187
e 156 195
e 156 197
e 157 188
e 157 198
e 158 163
e 158 174
e 158 176
e 158 178
e 158 181
e 158 189
e 158 200
e 159 160
e 159 163
e 159 171
e 159 173
e 159 178
e 159 183
e 159 189
e 159 190
e 159 193
e 159 194
e 159 196
e 159 200
e 160 161
e 160 167
e 160 169
e 160 177
e 160 180
e 160 198
e 160 199
e 161 162
e 161 166
e 161 173
e 161 175
e 161 181
e 162 164
e 162 172
e 162 173
e 163 164
e 163 174
e 163 181
e 163 185
e 163 186
e 163 197
e 164 169
e 164 171
e 164 180
e 164 184
e 164 192
e 164 200
e 165 169
e 165 172
e 165 175
e 165 176
e 165 179
e 165 182
e 165 192
e 165 199
e 166 172
e 166 173
e 166 174
e 166 182
e 166 185
e 166 200
e 167 173
e 167 176
e 167 181
e 167 183
e 167 190
e 167 193
e 167 197
e 167 200
e 168 188
e 168 190
e 168 198
e 168 200
e 169 170
e 169 175
e 169 177
e 169 180
e 169 182
e 169 188
e 169 191
e 169 192
e 170 178
e 170 181
e 170 187
e 170 195
e 170 199
e 170 200
e 171 175
e 171 176
e 171 178
e 171 179
e 171 183
e 171 198
e 172 175
e 172 179
e 172 180
e 172 184
e 172 187
e 172 190
e 172 192
e 172 193
e 172 195
e 172 196
e 172 198
e 173 186
e 173 187
e 173 190
e 173 192
e 173 194
e 174 175
e 174 181
e 174 185
e 174 186
e 174 188
e 174 189
e 174 190
e 174 193
e 174 198
e 175 185
e 175 186
e 175 187
e 175 195
e 176 179
e 176 186
e 176 189
e 176 195
e 176 196
e 177 179
e 177 182
e 177 183
e 177 186
e 177 187
e 177 188
e 178 179
e 178 185
e 178 190
e 179 185
e 179 187
e 179 193
e 179 194
e 180 192
e 180 197
e 181 190
e 181 193
e 181 195
e 182 183
e 182 189
e 182 197
e 182 198
e 182 199
e 183 185
e 183 188
e 183 189
e 183 195
e 183 196
e 183 198
e 184 185
e 184 186
e 184 187
e 184 190
e 184 196
e 184 199
e 185 186
e 185 187
e 185 189
e 185 191
e 185 195
e 186 187
e 186 188
e 186 196
e 187 188
e 187 196
e 187 197
e 188 195
e 188 199
e 189 192
e 189 196
e 189 197
e 190 194
e 190 199
e 190 200
e 191 193
e 192 198
e 192 200
e 193 195
e 194 199
e 195 196
